treewidth/data/PasechnikGraph_2.gr
p tw 49 441
1 48
1 49
1 4
1 8
1 9
1 11
1 18
1 20
1 21
1 23
1 25
1 27
1 33
1 36
1 37
1 41
1 43
1 44
2 49
2 3
2 5
2 9
2 10
2 12
2 15
2 19
2 21
2 25
2 26
2 28
2 30
2 34
2 37
2 38
2 42
2 44
13 3
13 4
13 6
13 10
13 11
13 14
13 15
13 16
13 20
13 26
13 27
13 29
13 30
13 31
13 36
13 38
13 39
13 43
24 47
24 4
24 5
24 7
24 11
24 12
24 16
24 17
24 21
24 22
24 27
24 28
24 31
24 32
24 37
24 39
24 40
24 44
35 48
35 5
35 6
35 8
35 12
35 14
35 15
35 17
35 18
35 23
35 28
35 29
35 30
35 32
35 33
35 38
35 40
35 41
45 47
45 49
45 6
45 7
45 9
45 14
45 16
45 18
45 19
45 22
45 25
45 29
45 31
45 33
45 34
45 39
45 41
45 42
46 47
46 48
46 3
46 7
46 8
46 10
46 17
46 19
46 20
46 22
46 23
46 26
46 32
46 34
46 36
46 40
46 42
46 43
47 8
47 9
47 11
47 16
47 17
47 19
47 26
47 28
47 29
47 31
47 32
47 34
47 41
47 43
47 44
48 9
48 10
48 12
48 17
48 18
48 20
48 22
48 27
48 29
48 32
48 33
48 36
48 38
48 42
48 44
49 10
49 11
49 14
49 18
49 19
49 21
49 22
49 23
49 28
49 33
49 34
49 37
49 38
49 39
49 43
3 7
3 11
3 12
3 15
3 19
3 20
3 23
3 25
3 29
3 30
3 34
3 36
3 39
3 40
3 44
4 8
4 12
4 14
4 16
4 20
4 21
4 22
4 25
4 26
4 31
4 36
4 37
4 38
4 40
4 41
5 7
5 9
5 14
5 15
5 17
5 21
5 23
5 26
5 27
5 30
5 32
5 37
5 39
5 41
5 42
6 7
6 8
6 10
6 15
6 16
6 18
6 25
6 27
6 28
6 30
6 31
6 33
6 40
6 42
6 43
7 16
7 17
7 19
7 23
7 25
7 27
7 33
7 36
7 37
7 39
7 40
7 42
8 17
8 18
8 20
8 25
8 26
8 28
8 30
8 34
8 37
8 40
8 41
8 43
9 18
9 19
9 21
9 26
9 27
9 29
9 30
9 31
9 36
9 41
9 42
9 44
10 15
10 19
10 20
10 22
10 27
10 28
10 31
10 32
10 37
10 38
10 42
10 43
11 16
11 20
11 21
11 23
11 28
11 29
11 30
11 32
11 33
11 39
11 43
11 44
12 15
12 17
12 21
12 22
12 25
12 29
12 31
12 33
12 34
12 38
12 40
12 44
14 15
14 16
14 18
14 22
14 23
14 26
14 32
14 34
14 36
14 38
14 39
14 41
15 23
15 25
15 27
15 31
15 32
15 34
15 41
15 43
15 44
16 25
16 26
16 28
16 32
16 33
16 36
16 38
16 42
16 44
17 26
17 27
17 29
17 33
17 34
17 37
17 38
17 39
17 43
18 22
18 27
18 28
18 30
18 34
18 36
18 39
18 40
18 44
19 23
19 28
19 29
19 31
19 36
19 37
19 38
19 40
19 41
20 22
20 25
20 29
20 30
20 32
20 37
20 39
20 41
20 42
21 22
21 23
21 26
21 30
21 31
21 33
21 40
21 42
21 43
22 31
22 32
22 34
22 39
22 40
22 42
23 32
23 33
23 36
23 40
23 41
23 43
25 33
25 34
25 37
25 41
25 42
25 44
26 30
26 34
26 36
26 38
26 42
26 43
27 31
27 36
27 37
27 39
27 43
27 44
28 30
28 32
28 37
28 38
28 40
28 44
29 30
29 31
29 33
29 38
29 39
29 41
30 39
30 40
30 42
31 40
31 41
31 43
32 41
32 42
32 44
33 38
33 42
33 43
34 39
34 43
34 44
36 38
36 40
36 44
37 38
37 39
37 41
