treewidth/data/PasechnikGraph_2.td
c width = 36, time = 22.682287
s td 4 37 49
b 1 2 3 6 7 8 9 10 11 16 17 18 19 20 22 23 24 26 28 29 30 31 32 34 35 36 37 38 40 41 42 43 44 45 46 47 48 49
b 2 2 3 4 6 7 8 9 10 11 15 16 17 18 20 21 22 23 24 26 27 29 30 31 32 34 35 36 37 38 40 41 42 43 44 45 48 49
b 3 1 2 3 4 6 7 8 9 11 12 15 16 17 18 20 21 22 23 24 25 27 29 31 33 34 35 36 37 38 40 41 42 43 44 45 48 49
b 4 2 3 4 5 6 7 9 10 11 13 14 15 16 17 18 20 21 22 23 24 26 27 29 30 31 32 34 35 36 37 38 39 41 42 43 45 49
2 3
2 4
1 2
